Route #1: 67 34 46 52 8 54 59 19 35
Route #2: 38 65 66 11 14 53 7
Route #3: 26 58 10 31 55 25 9 39 72 12
Route #4: 40 44 32 50 18 24 49 56 23
Route #5: 63 33 73 1 43 41 42 64 22 62
Route #6: 28 61 21 69 36 71 60 70 20 37 15 57
Route #7: 27 13 29 5 47 48 74 2 30 75
Route #8: 4 45 68 6 51 16 3 17
Cost 819